units           real
atom_style      full
atom_modify	map hash
boundary        p p p
neighbor    	2.0 bin
read_data       lammps_data
timestep        0.25

pair_style      reaxff  NULL
pair_coeff      * * ffield.Reaxff   H  O  Cu

fix             1 all qeq/reaxff 1 0.0 10.0 1.0e-6 reaxff

group		QM id  1:48 
group		notQM  id 49:51
fix		2 QM setforce 0.0 0.0 0.0


compute         reax all pair reaxff
log             qeq.eng
thermo          1
dump            1 all custom 1 qeq.lammps id type xu yu zu  q
thermo_style    custom step etotal pe ke ecoul ebond eangle evdwl etail
minimize 	1e-4 1e-6 1000 10000
